7 12 2 14 6 5 3 9 0 10 11 8 13 4 1
14 5 4 10 6 9 12 3 13 8 1 11 0 2 7
9 13 5 14 4 1 2 7 12 10 11 0 6 8 3
11 9 1 4 7 13 0 5 14 8 12 10 2 3 6
4 14 0 10 13 12 11 5 1 2 9 3 7 6 8
5 6 12 10 13 2 8 3 7 14 1 0 9 11 4
2 9 14 10 7 12 1 5 13 4 8 11 6 0 3
2 14 1 11 6 0 7 13 8 12 5 4 9 10 3
12 1 4 11 6 5 3 0 8 10 7 9 14 13 2
0 3 7 12 10 6 1 14 13 8 5 2 11 4 9
1 14 6 5 9 11 8 4 0 12 3 13 7 10 2
10 4 1 12 8 3 6 14 11 13 2 9 7 5 0
7 11 12 4 10 14 6 3 1 2 0 5 9 8 13
12 10 4 6 1 0 7 8 2 11 13 9 3 14 5
9 10 0 1 3 2 6 5 11 4 14 7 12 13 8 
